p tw 40 98
0 1
0 6
0 10
0 27
0 3
0 14
1 9
1 21
1 32
1 15
1 12
1 14
2 3
2 33
2 16
2 20
2 22
2 30
2 23
3 7
3 12
3 23
3 14
3 15
3 10
4 5
4 14
4 11
4 18
4 27
5 25
5 18
5 23
5 6
6 14
6 12
6 20
6 37
6 21
6 15
7 8
7 13
7 16
8 24
8 36
9 24
9 38
9 26
9 20
10 11
10 21
11 12
11 26
11 27
11 29
11 15
12 13
12 14
12 32
12 29
12 39
13 19
13 39
13 31
14 36
14 22
15 16
15 24
15 35
15 23
16 22
16 28
17 18
18 25
18 21
18 20
19 20
20 22
20 28
20 34
21 23
21 27
22 36
23 37
23 29
23 31
23 26
26 33
26 27
27 30
29 30
29 31
30 38
30 32
31 34
31 38
33 34
35 38
